p cnf 75 300
1 -75 -56 0
1 -75 -52 0
1 -75 21 0
1 -75 59 0
1 -74 -47 0
1 -74 13 0
1 -74 26 0
1 -74 69 0
1 -73 -5 0
1 -73 9 0
1 -73 47 0
1 -73 49 0
1 -72 -26 0
1 -72 2 0
1 -72 20 0
1 -72 66 0
1 -71 -65 0
1 -71 -18 0
1 -71 -11 0
1 -71 60 0
1 -70 -58 0
1 -70 -30 0
1 -70 -8 0
1 -70 46 0
1 -69 -29 0
1 -69 -19 0
1 -69 17 0
1 -69 37 0
1 -68 -52 0
1 -68 -24 0
1 -68 -17 0
1 -68 53 0
1 -67 -22 0
1 -67 40 0
1 -67 43 0
1 -67 53 0
1 -66 -39 0
1 -66 -26 0
1 -66 -13 0
1 -66 1 0
1 -65 -42 0
1 -65 -17 0
1 -65 73 0
1 -64 -63 0
1 -64 -40 0
1 -64 -6 0
1 -64 58 0
1 -63 -53 0
1 -63 3 0
1 -63 8 0
1 -62 -2 0
1 -62 7 0
1 -62 32 0
1 -62 64 0
1 -61 -37 0
1 -61 16 0
1 -61 29 0
1 -61 66 0
1 -60 -31 0
1 -60 28 0
1 -60 37 0
1 -60 43 0
1 -59 -56 0
1 -59 14 0
1 -59 40 0
1 -59 46 0
1 -58 -18 0
1 -58 -1 0
1 -58 19 0
1 -57 -33 0
1 -57 -22 0
1 -57 8 0
1 -57 64 0
1 -56 21 0
1 -56 43 0
1 -55 -48 0
1 -55 -9 0
1 -55 34 0
1 -55 63 0
1 -54 -51 0
1 -54 -23 0
1 -54 67 0
1 -54 69 0
1 -53 -47 0
1 -53 -42 0
1 -53 -23 0
1 -52 23 0
1 -52 51 0
1 -51 -43 0
1 -51 41 0
1 -51 49 0
1 -50 -34 0
1 -50 -32 0
1 -50 -7 0
1 -50 31 0
1 -49 -46 0
1 -49 -16 0
1 -49 6 0
1 -49 7 0
1 -48 -34 0
1 -48 -32 0
1 -48 -5 0
1 -47 6 0
1 -47 29 0
1 -46 -28 0
1 -46 5 0
1 -46 36 0
1 -45 -34 0
1 -45 -20 0
1 -45 25 0
1 -45 35 0
1 -44 6 0
1 -44 11 0
1 -44 18 0
1 -44 21 0
1 -43 3 0
1 -43 38 0
1 -43 68 0
1 -42 -33 0
1 -42 24 0
1 -41 -6 0
1 -41 12 0
1 -41 33 0
1 -41 38 0
1 -40 -31 0
1 -40 -10 0
1 -40 38 0
1 -39 -20 0
1 -39 -4 0
1 -39 52 0
1 -38 -28 0
1 -38 -23 0
1 -38 28 0
1 -38 50 0
1 -37 -5 0
1 -37 -1 0
1 -37 42 0
1 -36 -3 0
1 -36 51 0
1 -36 55 0
1 -36 71 0
1 -35 -29 0
1 -35 -14 0
1 -35 30 0
1 -35 70 0
1 -34 75 0
1 -33 6 0
1 -33 65 0
1 -32 -11 0
1 -32 58 0
1 -31 -4 0
1 -31 55 0
1 -30 -19 0
1 -30 41 0
1 -30 55 0
1 -29 -12 0
1 -29 7 0
1 -28 -25 0
1 -28 -23 0
1 -27 17 0
1 -27 18 0
1 -27 33 0
1 -27 39 0
1 -26 27 0
1 -26 57 0
1 -25 1 0
1 -25 9 0
1 -25 59 0
1 -24 51 0
1 -24 56 0
1 -24 65 0
1 -22 -21 0
1 -22 31 0
1 -21 32 0
1 -21 59 0
1 -21 61 0
1 -20 46 0
1 -20 58 0
1 -19 20 0
1 -19 56 0
1 -18 -3 0
1 -18 34 0
1 -17 28 0
1 -17 71 0
1 -16 9 0
1 -16 63 0
1 -16 73 0
1 -15 16 0
1 -15 30 0
1 -15 41 0
1 -15 48 0
1 -14 19 0
1 -14 44 0
1 -14 61 0
1 -13 4 0
1 -13 5 0
1 -13 22 0
1 -12 15 0
1 -12 36 0
1 -12 47 0
1 -11 62 0
1 -11 75 0
1 -10 5 0
1 -10 26 0
1 -10 41 0
1 -9 11 0
1 -9 22 0
1 -9 34 0
1 -8 13 0
1 -8 48 0
1 -8 71 0
1 -7 52 0
1 -7 54 0
1 -7 61 0
1 -6 19 0
1 -6 60 0
1 -5 -2 0
1 -4 9 0
1 -4 30 0
1 -3 39 0
1 -3 44 0
1 -2 27 0
1 -2 38 0
1 -1 10 0
1 -1 70 0
1 1 67 0
1 1 75 0
1 2 17 0
1 2 59 0
1 2 64 0
1 3 7 0
1 3 35 0
1 4 22 0
1 4 55 0
1 4 60 0
1 5 45 0
1 8 47 0
1 8 57 0
1 10 23 0
1 10 42 0
1 10 49 0
1 11 44 0
1 11 69 0
1 12 17 0
1 12 18 0
1 12 46 0
1 13 26 0
1 13 72 0
1 14 18 0
1 14 25 0
1 14 62 0
1 15 32 0
1 15 37 0
1 15 72 0
1 16 48 0
1 16 71 0
1 19 62 0
1 20 37 0
1 20 45 0
1 21 25 0
1 22 68 0
1 23 52 0
1 23 63 0
1 24 35 0
1 24 40 0
1 24 65 0
1 25 45 0
1 26 29 0
1 27 39 0
1 27 73 0
1 28 36 0
1 29 72 0
1 30 67 0
1 31 35 0
1 31 44 0
1 32 63 0
1 33 39 0
1 33 61 0
1 34 54 0
1 36 56 0
1 40 72 0
1 42 48 0
1 42 49 0
1 43 50 0
1 45 57 0
1 47 65 0
1 50 56 0
1 50 68 0
1 51 74 0
1 52 62 0
1 53 57 0
1 53 58 0
1 54 69 0
1 54 74 0
1 60 66 0
1 64 67 0
1 66 70 0
1 68 74 0
1 70 75 0
1 73 74 0
